# Example from https://sboyles.github.io/teaching/ce367r/04-mincostflow.pdf, slide 25
# version without lower bound (same result)

set N1 := 0 1 2 3;
set N2 := 4 5 6 7;


param:
    cost :=
     0 4 6
     0 5 2
     0 6 5
     0 7 8
     1 4 6
     1 5 7
     1 6 1
     1 7 6
     2 4 6
     2 5 3
     2 6 4
     2 7 5
     3 4 5
     3 5 4
     3 6 3
     3 7 4
        ;

end;
